TCS_Benchmarks/redos_fix/regexlib1_output_distinct_120_119_56_0.txt
\s*
&quot;[^qtu&;o]*&quot;|'[^']'|[^t&g;]*